0
Node Left Objective IInf Best_Integer Best_Bound ItCnt Gap
0+ 0 nan nan 136.4723 0.0000 nan 100.00%
0+ 0 nan nan 99.1655 0.0000 nan 100.00%
0 0 0.0000 27 99.1655 0.0000 129 100.00%
0 0 0.0000 25 99.1655 Cuts:6 136 100.00%
0 0 0.0000 26 99.1655 Cuts:12 171 100.00%
0 0 0.0000 28 99.1655 Cuts:6 179 100.00%
0+ 0 nan nan 89.6687 0.0000 nan 100.00%
0+ 0 nan nan 75.2902 0.0000 nan 100.00%
0 2 0.0000 26 75.2902 0.0000 179 100.00%
CPXPARAM_MIP_Cuts_Gomory-Disjunctive:Gomory 0
CPXPARAM_MIP_Cuts_Gomory-Disjunctive:Disjunctive 1
1
Node Left Objective IInf Best_Integer Best_Bound ItCnt Gap
0+ 0 nan nan 136.4723 0.0000 nan 100.00%
0+ 0 nan nan 99.1655 0.0000 nan 100.00%
0 0 0.0000 27 99.1655 0.0000 128 100.00%
0+ 0 nan nan 81.0831 0.0000 nan 100.00%
0 0 0.0000 18 81.0831 Fract:2 132 100.00%
0 0 0.0000 19 81.0831 Cuts:12 184 100.00%
0+ 0 nan nan 57.6015 0.0000 nan 100.00%
0 0 0.0000 19 57.6015 Fract:3 192 100.00%
0 2 0.0000 19 57.6015 0.0000 192 100.00%
CPXPARAM_MIP_Cuts_Gomory-Disjunctive:Gomory 3
CPXPARAM_MIP_Cuts_Gomory-Disjunctive:Disjunctive 0
2
Node Left Objective IInf Best_Integer Best_Bound ItCnt Gap
0+ 0 nan nan 136.4723 0.0000 nan 100.00%
0+ 0 nan nan 69.8576 0.0000 nan 100.00%
0 0 0.0000 23 69.8576 0.0000 121 100.00%
0 0 0.0000 21 69.8576 Cuts:11 142 100.00%
0 0 0.0000 21 69.8576 Cuts:15 178 100.00%
0 0 0.0000 23 69.8576 Cuts:20 231 100.00%
0+ 0 nan nan 69.3354 0.0000 nan 100.00%
0+ 0 nan nan 69.2857 0.0000 nan 100.00%
0+ 0 nan nan 60.4889 0.0000 nan 100.00%
0 2 0.0000 20 60.4889 0.0000 231 100.00%
CPXPARAM_MIP_Cuts_Gomory-Disjunctive:Gomory 1
CPXPARAM_MIP_Cuts_Gomory-Disjunctive:Disjunctive 1
3
Node Left Objective IInf Best_Integer Best_Bound ItCnt Gap
0+ 0 nan nan 136.4723 0.0000 nan 100.00%
0+ 0 nan nan 69.8576 0.0000 nan 100.00%
0 0 0.0000 24 69.8576 0.0000 115 100.00%
0+ 0 nan nan 58.0305 0.0000 nan 100.00%
0 0 0.0000 14 58.0305 Cuts:3 121 100.00%
0 0 0.0000 15 58.0305 Cuts:14 167 100.00%
0 0 0.0000 15 58.0305 Cuts:11 197 100.00%
0+ 0 nan nan 23.0910 0.0000 nan 100.00%
0 2 0.0000 15 23.0910 0.0000 197 100.00%
CPXPARAM_MIP_Cuts_Gomory-Disjunctive:Gomory 2
CPXPARAM_MIP_Cuts_Gomory-Disjunctive:Disjunctive 1
4
Node Left Objective IInf Best_Integer Best_Bound ItCnt Gap
0+ 0 nan nan 115.1924 0.0000 nan 100.00%
0+ 0 nan nan 108.1598 0.0000 nan 100.00%
0+ 0 nan nan 98.2525 0.0000 nan 100.00%
0 0 0.0000 27 98.2525 0.0000 135 100.00%
0 0 0.0000 26 98.2525 Cuts:7 150 100.00%
0+ 0 nan nan 92.7013 0.0000 nan 100.00%
0 0 0.0000 25 92.7013 Cuts:18 188 100.00%
0 0 0.0000 26 92.7013 Cuts:16 208 100.00%
0+ 0 nan nan 85.8779 0.0000 nan 100.00%
0+ 0 nan nan 85.8406 0.0000 nan 100.00%
0+ 0 nan nan 64.1915 0.0000 nan 100.00%
0 2 0.0000 26 64.1915 0.0000 208 100.00%
CPXPARAM_MIP_Cuts_Gomory-Disjunctive:Gomory 3
CPXPARAM_MIP_Cuts_Gomory-Disjunctive:Disjunctive 4
5
Node Left Objective IInf Best_Integer Best_Bound ItCnt Gap
0+ 0 nan nan 115.1924 0.0000 nan 100.00%
0+ 0 nan nan 108.1598 0.0000 nan 100.00%
0+ 0 nan nan 79.8300 0.0000 nan 100.00%
0 0 0.0000 27 79.8300 0.0000 133 100.00%
0+ 0 nan nan 76.7844 0.0000 nan 100.00%
0+ 0 nan nan 65.0419 0.0000 nan 100.00%
0+ 0 nan nan 51.7641 0.0000 nan 100.00%
0 2 0.0000 18 51.7641 0.0000 133 100.00%
CPXPARAM_MIP_Cuts_Gomory-Disjunctive:Gomory 0
CPXPARAM_MIP_Cuts_Gomory-Disjunctive:Disjunctive 0
6
Node Left Objective IInf Best_Integer Best_Bound ItCnt Gap
0+ 0 nan nan 115.1924 0.0000 nan 100.00%
0+ 0 nan nan 81.9438 0.0000 nan 100.00%
0 0 0.0000 23 81.9438 0.0000 129 100.00%
0+ 0 nan nan 80.6567 0.0000 nan 100.00%
0 0 0.0000 21 80.6567 Disjcuts:3 140 100.00%
0+ 0 nan nan 68.5278 0.0000 nan 100.00%
0 0 0.0000 21 68.5278 Cuts:29 183 100.00%
0 0 0.0000 23 68.5278 Cuts:16 238 100.00%
0+ 0 nan nan 65.1169 0.0000 nan 100.00%
0+ 0 nan nan 60.6857 0.0000 nan 100.00%
0 2 0.0000 21 60.6857 0.0000 238 100.00%
CPXPARAM_MIP_Cuts_Gomory-Disjunctive:Gomory 1
CPXPARAM_MIP_Cuts_Gomory-Disjunctive:Disjunctive 1
7
Node Left Objective IInf Best_Integer Best_Bound ItCnt Gap
0+ 0 nan nan 115.1924 0.0000 nan 100.00%
0+ 0 nan nan 81.9438 0.0000 nan 100.00%
0 0 0.0000 23 81.9438 0.0000 122 100.00%
0+ 0 nan nan 68.4953 0.0000 nan 100.00%
0 0 0.0000 15 68.4953 Cuts:2 141 100.00%
0 0 0.0000 17 68.4953 Cuts:14 163 100.00%
0 0 0.0000 16 68.4953 Disjcuts:5 171 100.00%
0+ 0 nan nan 66.4607 0.0000 nan 100.00%
0+ 0 nan nan 50.0045 0.0000 nan 100.00%
0 2 0.0000 15 50.0045 0.0000 171 100.00%
CPXPARAM_MIP_Cuts_Gomory-Disjunctive:Gomory 0
CPXPARAM_MIP_Cuts_Gomory-Disjunctive:Disjunctive 3
8
Node Left Objective IInf Best_Integer Best_Bound ItCnt Gap
0+ 0 nan nan 131.6037 0.0000 nan 100.00%
0+ 0 nan nan 111.2422 0.0000 nan 100.00%
0+ 0 nan nan 109.8445 0.0000 nan 100.00%
0 0 0.0000 27 109.8445 0.0000 114 100.00%
0 0 0.0000 28 109.8445 Cuts:16 142 100.00%
0 0 0.0000 27 109.8445 Disjcuts:1 146 100.00%
0+ 0 nan nan 101.1409 0.0000 nan 100.00%
0+ 0 nan nan 93.0104 0.0000 nan 100.00%
0 2 0.0000 25 93.0104 0.0000 146 100.00%
CPXPARAM_MIP_Cuts_Gomory-Disjunctive:Gomory 0
CPXPARAM_MIP_Cuts_Gomory-Disjunctive:Disjunctive 1
9
Node Left Objective IInf Best_Integer Best_Bound ItCnt Gap
0+ 0 nan nan 131.6037 0.0000 nan 100.00%
0+ 0 nan nan 111.2422 0.0000 nan 100.00%
0 0 0.0000 27 111.2422 0.0000 125 100.00%
0+ 0 nan nan 88.6818 0.0000 nan 100.00%
0 0 0.0000 18 88.6818 Disjcuts:1 126 100.00%
0+ 0 nan nan 88.2535 0.0000 nan 100.00%
0 0 0.0000 19 88.2535 Cuts:21 161 100.00%
0 0 0.0000 19 88.2535 Cuts:18 213 100.00%
0+ 0 nan nan 81.4765 0.0000 nan 100.00%
0+ 0 nan nan 67.3467 0.0000 nan 100.00%
0 2 0.0000 18 67.3467 0.0000 213 100.00%
CPXPARAM_MIP_Cuts_Gomory-Disjunctive:Gomory 1
CPXPARAM_MIP_Cuts_Gomory-Disjunctive:Disjunctive 0
10
Node Left Objective IInf Best_Integer Best_Bound ItCnt Gap
0+ 0 nan nan 131.6037 0.0000 nan 100.00%
0+ 0 nan nan 99.6733 0.0000 nan 100.00%
0 0 0.0000 23 99.6733 0.0000 121 100.00%
0 0 0.0000 20 99.6733 Cuts:3 122 100.00%
0 0 0.0000 21 99.6733 Cuts:18 158 100.00%
0+ 0 nan nan 98.9745 0.0000 nan 100.00%
0 0 0.0000 20 98.9745 Fract:1 165 100.00%
0+ 0 nan nan 92.1404 0.0000 nan 100.00%
0+ 0 nan nan 86.4877 0.0000 nan 100.00%
0 2 0.0000 20 86.4877 0.0000 165 100.00%
CPXPARAM_MIP_Cuts_Gomory-Disjunctive:Gomory 1
CPXPARAM_MIP_Cuts_Gomory-Disjunctive:Disjunctive 0
11
Node Left Objective IInf Best_Integer Best_Bound ItCnt Gap
0+ 0 nan nan 131.6037 0.0000 nan 100.00%
0+ 0 nan nan 99.6733 0.0000 nan 100.00%
0 0 0.0000 23 99.6733 0.0000 121 100.00%
0+ 0 nan nan 70.7338 0.0000 nan 100.00%
0 0 0.0000 15 70.7338 Disjcuts:1 128 100.00%
0 0 0.0000 16 70.7338 Disjcuts:9 152 100.00%
0 0 0.0000 15 70.7338 Cuts:3 158 100.00%
0+ 0 nan nan 54.2596 0.0000 nan 100.00%
0 2 0.0000 15 54.2596 0.0000 158 100.00%
CPXPARAM_MIP_Cuts_Gomory-Disjunctive:Gomory 0
CPXPARAM_MIP_Cuts_Gomory-Disjunctive:Disjunctive 3
12
Node Left Objective IInf Best_Integer Best_Bound ItCnt Gap
0+ 0 nan nan 110.3567 0.0000 nan 100.00%
0+ 0 nan nan 96.6816 0.0000 nan 100.00%
0 0 0.0000 27 96.6816 0.0000 120 100.00%
0+ 0 nan nan 92.0485 0.0000 nan 100.00%
0+ 0 nan nan 83.9336 0.0000 nan 100.00%
0 2 0.0000 24 83.9336 0.0000 120 100.00%
CPXPARAM_MIP_Cuts_Gomory-Disjunctive:Gomory 0
CPXPARAM_MIP_Cuts_Gomory-Disjunctive:Disjunctive 0
13
Node Left Objective IInf Best_Integer Best_Bound ItCnt Gap
0+ 0 nan nan 110.3567 0.0000 nan 100.00%
0+ 0 nan nan 96.6816 0.0000 nan 100.00%
0 0 0.0000 27 96.6816 0.0000 121 100.00%
0+ 0 nan nan 67.8692 0.0000 nan 100.00%
0 0 0.0000 19 67.8692 Cuts:6 143 100.00%
0 0 0.0000 19 67.8692 Cuts:17 183 100.00%
0 0 0.0000 19 67.8692 Cuts:5 197 100.00%
0+ 0 nan nan 60.0845 0.0000 nan 100.00%
0+ 0 nan nan 56.8190 0.0000 nan 100.00%
0+ 0 nan nan 56.6966 0.0000 nan 100.00%
0+ 0 nan nan 52.4266 0.0000 nan 100.00%
0 2 0.0000 19 52.4266 0.0000 197 100.00%
CPXPARAM_MIP_Cuts_Gomory-Disjunctive:Gomory 2
CPXPARAM_MIP_Cuts_Gomory-Disjunctive:Disjunctive 1
14
Node Left Objective IInf Best_Integer Best_Bound ItCnt Gap
0+ 0 nan nan 110.3567 0.0000 nan 100.00%
0+ 0 nan nan 82.1268 0.0000 nan 100.00%
0 0 0.0000 23 82.1268 0.0000 121 100.00%
0 0 0.0000 23 82.1268 Cuts:11 142 100.00%
0 0 0.0000 23 82.1268 Cuts:13 161 100.00%
0+ 0 nan nan 81.7048 0.0000 nan 100.00%
0+ 0 nan nan 77.3974 0.0000 nan 100.00%
0 2 0.0000 21 77.3974 0.0000 161 100.00%
CPXPARAM_MIP_Cuts_Gomory-Disjunctive:Gomory 0
CPXPARAM_MIP_Cuts_Gomory-Disjunctive:Disjunctive 2
15
Node Left Objective IInf Best_Integer Best_Bound ItCnt Gap
0+ 0 nan nan 110.3567 0.0000 nan 100.00%
0+ 0 nan nan 82.1268 0.0000 nan 100.00%
0 0 0.0000 23 82.1268 0.0000 117 100.00%
0+ 0 nan nan 59.2187 0.0000 nan 100.00%
0+ 0 nan nan 48.2055 0.0000 nan 100.00%
0+ 0 nan nan 48.1018 0.0000 nan 100.00%
0+ 0 nan nan 42.1408 0.0000 nan 100.00%
0 2 0.0000 13 42.1408 0.0000 117 100.00%
CPXPARAM_MIP_Cuts_Gomory-Disjunctive:Gomory 0
CPXPARAM_MIP_Cuts_Gomory-Disjunctive:Disjunctive 0
16
Node Left Objective IInf Best_Integer Best_Bound ItCnt Gap
0+ 0 nan nan 109.2984 0.0000 nan 100.00%
0+ 0 nan nan 97.6971 0.0000 nan 100.00%
0 0 0.0000 27 97.6971 0.0000 113 100.00%
0 0 0.0000 27 97.6971 Cuts:14 135 100.00%
0 0 0.0000 25 97.6971 Disjcuts:4 143 100.00%
0 0 0.0000 27 97.6971 Cuts:17 170 100.00%
0+ 0 nan nan 93.0202 0.0000 nan 100.00%
0 2 0.0000 25 93.0202 0.0000 170 100.00%
CPXPARAM_MIP_Cuts_Gomory-Disjunctive:Gomory 0
CPXPARAM_MIP_Cuts_Gomory-Disjunctive:Disjunctive 2
17
Node Left Objective IInf Best_Integer Best_Bound ItCnt Gap
0+ 0 nan nan 109.2984 0.0000 nan 100.00%
0+ 0 nan nan 97.6971 0.0000 nan 100.00%
0 0 0.0000 27 97.6971 0.0000 121 100.00%
0+ 0 nan nan 49.1084 0.0000 nan 100.00%
0 0 0.0000 18 49.1084 Disjcuts:1 123 100.00%
0 0 0.0000 19 49.1084 Cuts:17 151 100.00%
0+ 0 nan nan 39.2412 0.0000 nan 100.00%
0 2 0.0000 18 39.2412 0.0000 151 100.00%
CPXPARAM_MIP_Cuts_Gomory-Disjunctive:Gomory 0
CPXPARAM_MIP_Cuts_Gomory-Disjunctive:Disjunctive 1
18
Node Left Objective IInf Best_Integer Best_Bound ItCnt Gap
0+ 0 nan nan 109.2984 0.0000 nan 100.00%
0+ 0 nan nan 86.6088 0.0000 nan 100.00%
0 0 0.0000 23 86.6088 0.0000 118 100.00%
0 0 0.0000 22 86.6088 Cuts:5 132 100.00%
0 0 0.0000 22 86.6088 Cuts:14 157 100.00%
0 0 0.0000 22 86.6088 Disjcuts:2 178 100.00%
0+ 0 nan nan 82.2540 0.0000 nan 100.00%
0+ 0 nan nan 80.5687 0.0000 nan 100.00%
0+ 0 nan nan 72.6834 0.0000 nan 100.00%
0+ 0 nan nan 68.2639 0.0000 nan 100.00%
0 2 0.0000 20 68.2639 0.0000 178 100.00%
CPXPARAM_MIP_Cuts_Gomory-Disjunctive:Gomory 0
CPXPARAM_MIP_Cuts_Gomory-Disjunctive:Disjunctive 1
19
Node Left Objective IInf Best_Integer Best_Bound ItCnt Gap
0+ 0 nan nan 109.2984 0.0000 nan 100.00%
0+ 0 nan nan 86.6088 0.0000 nan 100.00%
0 0 0.0000 24 86.6088 0.0000 117 100.00%
0+ 0 nan nan 44.8537 0.0000 nan 100.00%
0 0 0.0000 14 44.8537 Disjcuts:1 118 100.00%
0 0 0.0000 17 44.8537 Cuts:12 150 100.00%
0 0 0.0000 16 44.8537 Cuts:3 184 100.00%
0 2 0.0000 14 44.8537 0.0000 184 100.00%
CPXPARAM_MIP_Cuts_Gomory-Disjunctive:Gomory 0
CPXPARAM_MIP_Cuts_Gomory-Disjunctive:Disjunctive 0
20
Node Left Objective IInf Best_Integer Best_Bound ItCnt Gap
0+ 0 nan nan 93.3792 0.0000 nan 100.00%
0+ 0 nan nan 84.6822 0.0000 nan 100.00%
0 0 0.0000 27 84.6822 0.0000 131 100.00%
0+ 0 nan nan 70.9667 0.0000 nan 100.00%
0 0 0.0000 25 70.9667 Cuts:6 141 100.00%
0+ 0 nan nan 64.9018 0.0000 nan 100.00%
0 0 0.0000 27 64.9018 Cuts:18 171 100.00%
0 0 0.0000 25 64.9018 Cuts:7 185 100.00%
0+ 0 nan nan 61.5122 0.0000 nan 100.00%
0+ 0 nan nan 51.2238 0.0000 nan 100.00%
0 2 0.0000 25 51.2238 0.0000 185 100.00%
CPXPARAM_MIP_Cuts_Gomory-Disjunctive:Gomory 1
CPXPARAM_MIP_Cuts_Gomory-Disjunctive:Disjunctive 4
21
Node Left Objective IInf Best_Integer Best_Bound ItCnt Gap
0+ 0 nan nan 93.3792 0.0000 nan 100.00%
0+ 0 nan nan 84.6822 0.0000 nan 100.00%
0 0 0.0000 27 84.6822 0.0000 125 100.00%
0+ 0 nan nan 46.5828 0.0000 nan 100.00%
0 0 0.0000 18 46.5828 Fract:1 127 100.00%
0 0 0.0000 20 46.5828 Cuts:16 150 100.00%
0 0 0.0000 20 46.5828 Cuts:6 165 100.00%
0+ 0 nan nan 38.3482 0.0000 nan 100.00%
0+ 0 nan nan 32.3761 0.0000 nan 100.00%
0 2 0.0000 19 32.3761 0.0000 165 100.00%
CPXPARAM_MIP_Cuts_Gomory-Disjunctive:Gomory 1
CPXPARAM_MIP_Cuts_Gomory-Disjunctive:Disjunctive 2
22
Node Left Objective IInf Best_Integer Best_Bound ItCnt Gap
0+ 0 nan nan 93.3792 0.0000 nan 100.00%
0+ 0 nan nan 77.4137 0.0000 nan 100.00%
0 0 0.0000 23 77.4137 0.0000 135 100.00%
0+ 0 nan nan 61.3589 0.0000 nan 100.00%
0 0 0.0000 21 61.3589 Disjcuts:4 155 100.00%
0+ 0 nan nan 59.3611 0.0000 nan 100.00%
0 0 0.0000 23 59.3611 Cuts:18 191 100.00%
0 0 0.0000 21 59.3611 Disjcuts:5 210 100.00%
0+ 0 nan nan 58.3127 0.0000 nan 100.00%
0+ 0 nan nan 55.3921 0.0000 nan 100.00%
0+ 0 nan nan 47.4312 0.0000 nan 100.00%
0 2 0.0000 21 47.4312 0.0000 210 100.00%
CPXPARAM_MIP_Cuts_Gomory-Disjunctive:Gomory 0
CPXPARAM_MIP_Cuts_Gomory-Disjunctive:Disjunctive 5
23
Node Left Objective IInf Best_Integer Best_Bound ItCnt Gap
0+ 0 nan nan 93.3792 0.0000 nan 100.00%
0+ 0 nan nan 77.4137 0.0000 nan 100.00%
0 0 0.0000 23 77.4137 0.0000 115 100.00%
0+ 0 nan nan 44.4047 0.0000 nan 100.00%
0+ 0 nan nan 41.1911 0.0000 nan 100.00%
0+ 0 nan nan 31.8893 0.0000 nan 100.00%
0 2 0.0000 13 31.8893 0.0000 115 100.00%
CPXPARAM_MIP_Cuts_Gomory-Disjunctive:Gomory 0
CPXPARAM_MIP_Cuts_Gomory-Disjunctive:Disjunctive 0
24
Node Left Objective IInf Best_Integer Best_Bound ItCnt Gap
0+ 0 nan nan 94.5045 0.0000 nan 100.00%
0+ 0 nan nan 83.7373 0.0000 nan 100.00%
0 0 0.0000 27 83.7373 0.0000 126 100.00%
0+ 0 nan nan 75.2022 0.0000 nan 100.00%
0 0 0.0000 26 75.2022 Cuts:9 143 100.00%
0+ 0 nan nan 74.2312 0.0000 nan 100.00%
0 0 0.0000 26 74.2312 Cuts:17 188 100.00%
0+ 0 nan nan 63.9757 0.0000 nan 100.00%
0 0 0.0000 25 63.9757 Cuts:5 192 100.00%
0+ 0 nan nan 62.0428 0.0000 nan 100.00%
0+ 0 nan nan 50.8052 0.0000 nan 100.00%
0 2 0.0000 25 50.8052 0.0000 192 100.00%
CPXPARAM_MIP_Cuts_Gomory-Disjunctive:Gomory 2
CPXPARAM_MIP_Cuts_Gomory-Disjunctive:Disjunctive 1
25
Node Left Objective IInf Best_Integer Best_Bound ItCnt Gap
0+ 0 nan nan 94.5045 0.0000 nan 100.00%
0+ 0 nan nan 83.7373 0.0000 nan 100.00%
0 0 0.0000 27 83.7373 0.0000 119 100.00%
0+ 0 nan nan 62.9306 0.0000 nan 100.00%
0 0 0.0000 19 62.9306 Cuts:9 133 100.00%
0 0 0.0000 20 62.9306 Cuts:17 166 100.00%
0+ 0 nan nan 60.3951 0.0000 nan 100.00%
0 2 0.0000 19 60.3951 0.0000 166 100.00%
CPXPARAM_MIP_Cuts_Gomory-Disjunctive:Gomory 1
CPXPARAM_MIP_Cuts_Gomory-Disjunctive:Disjunctive 2
26
Node Left Objective IInf Best_Integer Best_Bound ItCnt Gap
0+ 0 nan nan 94.5045 0.0000 nan 100.00%
0+ 0 nan nan 77.4984 0.0000 nan 100.00%
0 0 0.0000 23 77.4984 0.0000 120 100.00%
0+ 0 nan nan 68.8610 0.0000 nan 100.00%
0 0 0.0000 22 68.8610 Cuts:7 130 100.00%
0 0 0.0000 20 68.8610 Cuts:5 135 100.00%
0+ 0 nan nan 68.5661 0.0000 nan 100.00%
0 0 0.0000 22 68.5661 Cuts:15 189 100.00%
0+ 0 nan nan 68.0360 0.0000 nan 100.00%
0+ 0 nan nan 58.1974 0.0000 nan 100.00%
0+ 0 nan nan 48.2775 0.0000 nan 100.00%
0 2 0.0000 20 48.2775 0.0000 189 100.00%
CPXPARAM_MIP_Cuts_Gomory-Disjunctive:Gomory 1
CPXPARAM_MIP_Cuts_Gomory-Disjunctive:Disjunctive 1
27
Node Left Objective IInf Best_Integer Best_Bound ItCnt Gap
0+ 0 nan nan 94.5045 0.0000 nan 100.00%
0+ 0 nan nan 77.4984 0.0000 nan 100.00%
0 0 0.0000 23 77.4984 0.0000 116 100.00%
0+ 0 nan nan 42.7585 0.0000 nan 100.00%
0+ 0 nan nan 32.3132 0.0000 nan 100.00%
0 2 0.0000 13 32.3132 0.0000 116 100.00%
CPXPARAM_MIP_Cuts_Gomory-Disjunctive:Gomory 0
CPXPARAM_MIP_Cuts_Gomory-Disjunctive:Disjunctive 0
28
Node Left Objective IInf Best_Integer Best_Bound ItCnt Gap
0+ 0 nan nan 133.7092 0.0000 nan 100.00%
0+ 0 nan nan 129.6212 0.0000 nan 100.00%
0+ 0 nan nan 108.6480 0.0000 nan 100.00%
0 0 0.0000 27 108.6480 0.0000 133 100.00%
0 0 0.0000 26 108.6480 Cuts:8 151 100.00%
0 0 0.0000 28 108.6480 Cuts:18 185 100.00%
0 0 0.0000 27 108.6480 Cuts:9 205 100.00%
0+ 0 nan nan 105.5669 0.0000 nan 100.00%
0+ 0 nan nan 92.7981 0.0000 nan 100.00%
0 2 0.0000 26 92.7981 0.0000 205 100.00%
CPXPARAM_MIP_Cuts_Gomory-Disjunctive:Gomory 0
CPXPARAM_MIP_Cuts_Gomory-Disjunctive:Disjunctive 2
29
Node Left Objective IInf Best_Integer Best_Bound ItCnt Gap
0+ 0 nan nan 133.7092 0.0000 nan 100.00%
0+ 0 nan nan 129.6212 0.0000 nan 100.00%
0 0 0.0000 28 129.6212 0.0000 125 100.00%
0+ 0 nan nan 64.4748 0.0000 nan 100.00%
0+ 0 nan nan 63.1629 0.0000 nan 100.00%
0+ 0 nan nan 61.6458 0.0000 nan 100.00%
0 2 0.0000 19 61.6458 0.0000 125 100.00%
CPXPARAM_MIP_Cuts_Gomory-Disjunctive:Gomory 0
CPXPARAM_MIP_Cuts_Gomory-Disjunctive:Disjunctive 0
30
Node Left Objective IInf Best_Integer Best_Bound ItCnt Gap
0+ 0 nan nan 133.7092 0.0000 nan 100.00%
0+ 0 nan nan 114.7297 0.0000 nan 100.00%
0 0 0.0000 23 114.7297 0.0000 115 100.00%
0+ 0 nan nan 105.7685 0.0000 nan 100.00%
0 0 0.0000 23 105.7685 Cuts:9 132 100.00%
0 0 0.0000 25 105.7685 Cuts:22 187 100.00%
0+ 0 nan nan 104.5802 0.0000 nan 100.00%
0+ 0 nan nan 95.2347 0.0000 nan 100.00%
0+ 0 nan nan 81.0233 0.0000 nan 100.00%
0 2 0.0000 23 81.0233 0.0000 187 100.00%
CPXPARAM_MIP_Cuts_Gomory-Disjunctive:Gomory 0
CPXPARAM_MIP_Cuts_Gomory-Disjunctive:Disjunctive 5
31
Node Left Objective IInf Best_Integer Best_Bound ItCnt Gap
0+ 0 nan nan 133.7092 0.0000 nan 100.00%
0+ 0 nan nan 114.7297 0.0000 nan 100.00%
0 0 0.0000 23 114.7297 0.0000 128 100.00%
0+ 0 nan nan 68.5774 0.0000 nan 100.00%
0 0 0.0000 14 68.5774 Disjcuts:1 133 100.00%
0+ 0 nan nan 64.2060 0.0000 nan 100.00%
0 0 0.0000 15 64.2060 Cuts:13 162 100.00%
0+ 0 nan nan 62.6957 0.0000 nan 100.00%
0 0 0.0000 14 62.6957 Cuts:18 201 100.00%
0+ 0 nan nan 52.1529 0.0000 nan 100.00%
0 2 0.0000 14 52.1529 0.0000 201 100.00%
CPXPARAM_MIP_Cuts_Gomory-Disjunctive:Gomory 1
CPXPARAM_MIP_Cuts_Gomory-Disjunctive:Disjunctive 2
32
Node Left Objective IInf Best_Integer Best_Bound ItCnt Gap
0+ 0 nan nan 110.7059 0.0000 nan 100.00%
0+ 0 nan nan 93.8685 0.0000 nan 100.00%
0+ 0 nan nan 88.1652 0.0000 nan 100.00%
0 0 0.0000 27 88.1652 0.0000 119 100.00%
0 0 0.0000 28 88.1652 Cuts:14 138 100.00%
0 0 0.0000 25 88.1652 Disjcuts:4 150 100.00%
0+ 0 nan nan 87.7416 0.0000 nan 100.00%
0 0 0.0000 27 87.7416 Cuts:21 177 100.00%
0+ 0 nan nan 68.6634 0.0000 nan 100.00%
0+ 0 nan nan 53.5039 0.0000 nan 100.00%
0 2 0.0000 26 53.5039 0.0000 177 100.00%
CPXPARAM_MIP_Cuts_Gomory-Disjunctive:Gomory 1
CPXPARAM_MIP_Cuts_Gomory-Disjunctive:Disjunctive 3
33
Node Left Objective IInf Best_Integer Best_Bound ItCnt Gap
0+ 0 nan nan 110.7059 0.0000 nan 100.00%
0+ 0 nan nan 93.8685 0.0000 nan 100.00%
0 0 0.0000 27 93.8685 0.0000 116 100.00%
0+ 0 nan nan 60.5684 0.0000 nan 100.00%
0 0 0.0000 20 60.5684 Disjcuts:2 140 100.00%
0 0 0.0000 20 60.5684 Cuts:7 150 100.00%
0 0 0.0000 19 60.5684 Disjcuts:1 152 100.00%
0+ 0 nan nan 58.7396 0.0000 nan 100.00%
0 2 0.0000 19 58.7396 0.0000 152 100.00%
CPXPARAM_MIP_Cuts_Gomory-Disjunctive:Gomory 0
CPXPARAM_MIP_Cuts_Gomory-Disjunctive:Disjunctive 3
34
Node Left Objective IInf Best_Integer Best_Bound ItCnt Gap
0+ 0 nan nan 110.7059 0.0000 nan 100.00%
0+ 0 nan nan 74.9711 0.0000 nan 100.00%
0 0 0.0000 23 74.9711 0.0000 120 100.00%
0+ 0 nan nan 70.5384 0.0000 nan 100.00%
0 0 0.0000 21 70.5384 Disjcuts:1 132 100.00%
0+ 0 nan nan 70.5321 0.0000 nan 100.00%
0 0 0.0000 22 70.5321 Cuts:18 158 100.00%
0 0 0.0000 26 70.5321 Cuts:17 212 100.00%
0+ 0 nan nan 65.1888 0.0000 nan 100.00%
0+ 0 nan nan 62.4092 0.0000 nan 100.00%
0+ 0 nan nan 57.0934 0.0000 nan 100.00%
0 2 0.0000 22 57.0934 0.0000 212 100.00%
CPXPARAM_MIP_Cuts_Gomory-Disjunctive:Gomory 1
CPXPARAM_MIP_Cuts_Gomory-Disjunctive:Disjunctive 1
35
Node Left Objective IInf Best_Integer Best_Bound ItCnt Gap
0+ 0 nan nan 110.7059 0.0000 nan 100.00%
0+ 0 nan nan 74.9711 0.0000 nan 100.00%
0 0 0.0000 23 74.9711 0.0000 113 100.00%
0+ 0 nan nan 53.1990 0.0000 nan 100.00%
0+ 0 nan nan 49.8685 0.0000 nan 100.00%
0 2 0.0000 15 49.8685 0.0000 113 100.00%
CPXPARAM_MIP_Cuts_Gomory-Disjunctive:Gomory 0
CPXPARAM_MIP_Cuts_Gomory-Disjunctive:Disjunctive 0
36
Node Left Objective IInf Best_Integer Best_Bound ItCnt Gap
0+ 0 nan nan 123.7135 0.0000 nan 100.00%
0+ 0 nan nan 108.6148 0.0000 nan 100.00%
0+ 0 nan nan 99.0366 0.0000 nan 100.00%
0 0 0.0000 27 99.0366 0.0000 131 100.00%
0+ 0 nan nan 98.7082 0.0000 nan 100.00%
0 0 0.0000 25 98.7082 Cuts:5 149 100.00%
0+ 0 nan nan 97.3821 0.0000 nan 100.00%
0 0 0.0000 27 97.3821 Cuts:19 177 100.00%
0 0 0.0000 27 97.3821 Cuts:7 198 100.00%
0+ 0 nan nan 89.5123 0.0000 nan 100.00%
0+ 0 nan nan 76.3027 0.0000 nan 100.00%
0 2 0.0000 26 76.3027 0.0000 198 100.00%
CPXPARAM_MIP_Cuts_Gomory-Disjunctive:Gomory 1
CPXPARAM_MIP_Cuts_Gomory-Disjunctive:Disjunctive 0
37
Node Left Objective IInf Best_Integer Best_Bound ItCnt Gap
0+ 0 nan nan 123.7135 0.0000 nan 100.00%
0+ 0 nan nan 108.6148 0.0000 nan 100.00%
0 0 0.0000 27 108.6148 0.0000 128 100.00%
0+ 0 nan nan 83.1888 0.0000 nan 100.00%
0+ 0 nan nan 80.2505 0.0000 nan 100.00%
0+ 0 nan nan 58.5686 0.0000 nan 100.00%
0 2 0.0000 18 58.5686 0.0000 128 100.00%
CPXPARAM_MIP_Cuts_Gomory-Disjunctive:Gomory 0
CPXPARAM_MIP_Cuts_Gomory-Disjunctive:Disjunctive 0
38
Node Left Objective IInf Best_Integer Best_Bound ItCnt Gap
0+ 0 nan nan 123.7135 0.0000 nan 100.00%
0+ 0 nan nan 89.1896 0.0000 nan 100.00%
0 0 0.0000 23 89.1896 0.0000 134 100.00%
0+ 0 nan nan 83.5087 0.0000 nan 100.00%
0 0 0.0000 23 83.5087 Cuts:18 156 100.00%
0+ 0 nan nan 72.0116 0.0000 nan 100.00%
0 0 0.0000 24 72.0116 Cuts:7 173 100.00%
0+ 0 nan nan 70.7010 0.0000 nan 100.00%
0 2 0.0000 23 70.7010 0.0000 173 100.00%
CPXPARAM_MIP_Cuts_Gomory-Disjunctive:Gomory 1
CPXPARAM_MIP_Cuts_Gomory-Disjunctive:Disjunctive 2
39
Node Left Objective IInf Best_Integer Best_Bound ItCnt Gap
0+ 0 nan nan 123.7135 0.0000 nan 100.00%
0+ 0 nan nan 89.1896 0.0000 nan 100.00%
0 0 0.0000 24 89.1896 0.0000 114 100.00%
0+ 0 nan nan 58.9767 0.0000 nan 100.00%
0+ 0 nan nan 54.7604 0.0000 nan 100.00%
0+ 0 nan nan 52.9230 0.0000 nan 100.00%
0+ 0 nan nan 35.3690 0.0000 nan 100.00%
0 2 0.0000 14 35.3690 0.0000 114 100.00%
CPXPARAM_MIP_Cuts_Gomory-Disjunctive:Gomory 0
CPXPARAM_MIP_Cuts_Gomory-Disjunctive:Disjunctive 0
